103 6
10 10 10 10 10 10
1 0 0 0 0 0 0 3 2 3 4
1 0 0 0 7 7 8 4 5 6 7 8
8 0 0 7 8 0 10 4 103 6 7 8
1 0 6 0 2 5 5 4 5 6 7 8
3 0 0 6 9 10 0 3 10 11 12
5 0 0 0 10 8 0 3 9 11 12
9 0 0 10 0 0 0 4 9 10 11 12
2 10 0 8 0 0 0 3 9 11 12
1 0 7 0 10 7 9 3 13 14 16
3 9 0 0 5 10 9 4 13 14 15 16
5 0 0 3 0 0 10 4 13 14 15 16
9 0 0 0 5 0 5 4 13 14 15 16
2 0 0 0 0 7 0 3 17 18 20
1 10 10 0 0 6 10 2 19 20
1 10 8 0 10 0 0 4 17 18 19 20
5 0 0 0 3 10 0 1 18
5 7 9 0 5 0 4 4 21 22 23 24
10 0 0 4 0 0 10 4 21 22 23 24
3 0 9 0 0 10 0 4 21 22 23 24
7 10 9 8 0 0 0 4 21 22 23 24
8 7 0 9 0 10 7 3 26 27 28
1 0 0 7 0 0 10 4 25 26 27 28
1 10 0 4 6 0 4 2 27 28
2 0 0 6 0 0 6 3 26 27 28
7 0 9 8 0 10 5 3 29 30 31
1 10 6 6 0 9 0 4 29 30 31 32
7 7 4 10 7 0 0 4 29 30 31 32
1 7 9 9 0 0 0 4 29 30 31 32
2 0 0 0 7 0 0 3 33 34 36
2 5 10 9 3 5 10 4 33 34 35 36
1 0 10 10 0 0 0 4 33 34 35 36
9 10 10 7 0 0 8 4 33 34 35 36
6 9 0 0 0 10 7 4 37 38 39 40
2 6 10 3 10 0 4 2 38 40
2 7 0 10 0 10 5 2 37 40
3 3 10 0 9 0 0 2 37 40
1 3 0 0 3 0 0 4 41 42 43 44
7 9 9 3 0 0 0 2 42 44
1 10 0 4 9 10 0 2 42 44
6 7 10 0 10 3 0 3 41 42 43
1 6 0 0 0 9 10 3 45 46 47
1 0 0 0 0 0 4 3 45 46 47
10 0 7 0 9 0 0 3 45 46 48
1 0 4 0 10 9 3 4 45 46 47 48
3 10 0 4 10 0 10 3 50 51 52
1 0 10 0 5 0 0 4 49 50 51 52
6 0 0 10 0 10 0 4 49 50 51 52
9 10 0 10 10 5 6 4 49 50 51 52
1 10 0 10 10 0 0 3 53 54 56
10 0 6 3 0 10 5 4 53 54 55 56
3 10 0 0 0 0 0 3 53 54 56
2 0 0 0 7 6 0 3 53 55 56
1 8 10 0 2 4 6 2 57 58
9 0 5 0 9 0 7 3 58 59 60
1 0 10 10 0 0 0 2 59 60
1 9 0 6 6 4 8 3 57 59 60
2 10 0 7 10 10 9 4 61 62 63 64
1 3 3 0 0 0 0 3 62 63 64
5 6 0 9 0 0 0 4 61 62 63 64
2 0 0 0 4 5 5 3 62 63 64
4 5 0 0 6 0 4 3 65 66 68
1 10 0 0 0 0 5 4 65 66 67 68
1 7 0 0 0 0 3 4 65 66 67 68
8 0 9 7 0 3 8 4 65 66 67 68
1 4 0 0 3 0 5 2 69 71
5 0 0 3 9 0 8 4 69 70 71 72
2 0 0 5 6 0 7 3 69 70 71
7 0 10 0 0 0 10 3 69 70 71
7 6 0 10 0 0 10 4 73 74 75 76
1 8 0 7 9 9 7 4 73 74 75 76
5 6 6 10 2 0 0 3 73 74 75
1 5 9 10 0 3 0 3 73 74 75
1 0 6 10 0 0 7 4 77 78 79 80
8 0 10 0 0 0 5 3 77 79 80
4 0 0 0 8 0 0 3 77 78 79
1 0 0 0 5 0 10 4 77 78 79 80
2 0 0 10 0 9 0 3 81 83 84
1 0 10 0 8 0 3 3 81 83 84
7 8 0 0 0 0 7 4 81 82 83 84
1 4 7 5 3 10 0 4 81 82 83 84
8 0 0 7 7 10 0 3 85 86 87
1 6 0 10 4 0 7 1 86
5 6 7 0 7 6 0 3 86 87 88
1 0 0 0 0 3 0 3 85 86 87
4 0 10 0 0 5 6 3 89 90 92
9 4 8 0 7 0 0 4 89 90 91 92
1 0 6 10 0 0 10 4 89 90 91 92
4 0 0 4 0 0 9 4 89 90 91 92
1 0 10 0 0 7 0 3 93 95 96
1 9 0 0 8 0 10 4 93 94 95 96
1 9 0 10 8 8 0 3 93 95 96
1 0 6 4 0 10 6 2 95 96
2 5 0 0 0 10 10 2 97 100
1 10 4 0 4 0 0 3 97 98 99
1 0 0 0 3 5 0 4 97 98 99 100
1 0 0 5 4 10 3 3 97 98 100
1 10 10 0 6 9 0 1 102
8 10 0 3 0 10 6 1 102
2 6 6 0 0 10 0 1 102
1 0 10 10 10 3 0 1 101
1 0 3 0 0 4 0 1 103
5 4 4 0 3 0 7 1 103
0 0 0 0 0 0 0 0
